Route #1: 6 33 62 2 68 
Route #2: 7 11 66 65 
Route #3: 12 39 9 40 
Route #4: 16 42 64 22 28 
Route #5: 17 3 44 32 26 
Route #6: 19 54 13 57 15 5 29 
Route #7: 30 48 47 21 74 
Route #8: 35 14 59 53 
Route #9: 37 20 70 60 71 36 69 61 
Route #10: 45 27 52 8 46 
Route #11: 50 25 55 18 24 49 51 
Route #12: 58 38 10 31 72 
Route #13: 63 23 56 41 43 1 73 
Route #14: 67 34 4 75 
Cost 1021
